CMD:
./solvers/bin/cadical --plain --no-reduce -t 1600 ./data/cnfs//beemskbn3f1/beemskbn3f1.51.cnf

c --- [ banner ] -------------------------------------------------------------
c 
c CaDiCaL SAT Solver
c Copyright (c) 2016-2024
c A. Biere, M. Fleury, N. Froleyks, K. Fazekas, F. Pollitt, T. Faller
c JKU Linz, University of Freiburg, TU Wien
c 
c Version 2.1.3 5296d3d2a9bf48c154ab2acb5e44625776d821bf
c g++ (Gentoo 12.3.1_p20230526 p2) 12.3.1 20230526 -Wall -Wextra -O3 -DNDEBUG
c Sat Aug 9 07:26:21 PDT 2025 Linux cedar2.int.cedar.computecanada.ca 5.14.0-362.24.2.el9_3.x86_64 x86_64
c 
c --- [ limit ] --------------------------------------------------------------
c 
c setting time limit to 1600 seconds real time (due to '-t 1600')
c 
c --- [ parsing input ] ------------------------------------------------------
c 
c reading DIMACS file from './data/cnfs//beemskbn3f1/beemskbn3f1.51.cnf'
c opening file to read './data/cnfs//beemskbn3f1/beemskbn3f1.51.cnf'
c found 'p cnf 2747766 8238342' header
c parsed 8238342 clauses in 1.41 seconds process time
c 
c --- [ options ] ------------------------------------------------------------
c 
c   --compact=false                (different from default 'true')
c   --decompose=false              (different from default 'true')
c   --deduplicate=false            (different from default 'true')
c   --elim=false                   (different from default 'true')
c   --probe=false                  (different from default 'true')
c   --reduce=false                 (different from default 'true')
c   --subsume=false                (different from default 'true')
c   --ternary=false                (different from default 'true')
c   --transred=false               (different from default 'true')
c   --vivify=false                 (different from default 'true')
c 
c --- [ solving ] ------------------------------------------------------------
c 
c time measured in process time since initialization
c 
c  seconds    reductions  redundant   irredundant
c          MB     restarts       trail        variables
c            level   conflicts       glue           remaining
c 
c *  1.41 1161  0 0   0    0    0  0% 0 6953142 849299 31%
c {  1.65 1173  0 0   0    0    0  0% 0 6953142 849299 31%
c i  2.17 1173 222 0  10  512  363 75% 3 6953142 847745 31%
c i  2.19 1173 249 0  10  553  397 75% 2 6953142 846147 31%
c i  2.20 1173 262 0  10  579  420 75% 2 6953142 844645 31%
c i  2.28 1173 253 0  19  632  471 75% 3 6953142 844596 31%
c i  2.40 1173 233 0  38  843  535 74% 3 6953142 844590 31%
c i  2.55 1173 213 0  56  933  602 73% 3 6953142 844518 31%
c i  2.56 1173 211 0  57  941  607 73% 3 6953142 844357 31%
c }  2.78 1173 195 0  60 1000  666 74% 3 6953142 844354 31%
c [  2.78 1173  0 0  60 1000  666  0% 0 6953142 844354 31%
c O  3.30 1173 106 0  60 1002  668 84% 4 6953142 844354 31%
c i  5.18 1173 242 0  61 2373 1947 88% 9 6953142 844326 31%
c ]  5.53 1173 672 0  61 3000 2492 86% 20 6953142 844326 31%
c {  5.53 1173 195 0  61 3000 2492 74% 3 6953142 844326 31%
c F  5.56 1173 203 0  61 3005 2497 74% 3 6953142 844318 31%
c i  5.67 1173 201 0  76 3203 2627 74% 3 6953142 844316 31%
c i  6.07 1173 232 0 112 3767 2872 73% 3 6953142 843752 31%
c i  6.16 1173 339 0 112 4021 3091 74% 3 6953142 843732 31%
c i  6.58 1173 327 0 125 4183 3233 75% 3 6953142 843694 31%
c 
c  seconds     reductions  redundant   irredundant
c          MB      restarts       trail        variables
c             level   conflicts       glue           remaining
c 
c i  6.79 1173 313 0 141 4377 3349 75% 3 6953142 843102 31%
c i  6.90 1173 297 0 149 4499 3446 74% 3 6953142 843087 31%
c i  6.92 1173 292 0 149 4532 3474 74% 3 6953142 842936 31%
c i  6.92 1173 292 0 149 4533 3474 74% 3 6953142 842933 31%
c i  6.92 1173 292 0 149 4534 3474 74% 3 6953142 842931 31%
c i  6.92 1173 292 0 149 4535 3474 74% 3 6953142 842929 31%
c i  6.95 1173 286 0 149 4571 3506 74% 3 6953142 842917 31%
c i  6.99 1173 280 0 149 4609 3536 74% 3 6953142 842898 31%
c i  7.81 1173 236 0 208 5213 4020 74% 3 6953142 842824 31%
c i  7.82 1173 236 0 208 5214 4020 74% 3 6953142 842813 31%
c i  7.95 1173 227 0 209 5322 4116 74% 3 6953142 840546 31%
c i  9.15 1173 191 0 263 6001 4692 74% 3 6953142 840544 31%
c i  9.15 1173 190 0 263 6002 4692 74% 3 6953142 840518 31%
c #  9.20 1173 190 0 265 6006 4696 74% 3 6953142 840518 31%
c i  9.20 1173 190 0 265 6008 4697 74% 3 6953142 840505 31%
c i  9.42 1173 185 0 279 6219 4832 74% 3 6953142 840086 31%
c i  9.46 1173 184 0 280 6241 4851 74% 3 6953142 840082 31%
c i  9.46 1173 184 0 280 6317 4863 74% 3 6953142 840018 31%
c i  9.70 1173 181 0 282 6422 4956 74% 3 6953142 839977 31%
c i 10.25 1174 179 0 303 6814 5145 75% 4 6953142 839860 31%
c 
c  seconds     reductions  redundant   irredundant
c          MB      restarts       trail        variables
c             level   conflicts       glue           remaining
c 
c i 10.50 1174 175 0 331 6937 5257 74% 4 6953142 839843 31%
c i 10.67 1174 172 0 345 7005 5321 74% 4 6953142 839783 31%
c } 10.67 1174 172 0 345 7005 5321 74% 4 6953142 839783 31%
c [ 10.67 1174 672 0 345 7005 5321 86% 20 6953142 839783 31%
... skipped 381 lines ...
c i 71.11 1226 365 0 1208 45940 30133 81% 21 2282141 799056 29%
c i 71.14 1226 364 0 1208 45988 30176 81% 21 2282141 799039 29%
c i 71.24 1226 362 0 1208 46173 30352 81% 21 2282141 799022 29%
c i 71.29 1226 360 0 1208 46292 30463 81% 21 2282141 799005 29%
c i 71.32 1226 360 0 1208 46329 30498 81% 21 2282141 798988 29%
c i 71.34 1226 360 0 1208 46338 30506 81% 21 2282141 798971 29%
c i 71.39 1226 359 0 1208 46368 30533 81% 21 2282141 798954 29%
c i 71.51 1226 357 0 1208 46541 30698 81% 21 2282141 798919 29%
c i 71.54 1226 357 0 1208 46581 30732 81% 21 2282141 798902 29%
c i 71.56 1226 357 0 1208 46588 30738 81% 21 2282141 798901 29%
c 
c  seconds     reductions     redundant    irredundant
c          MB      restarts          trail         variables
c             level     conflicts        glue            remaining
c 
c i 71.58 1226 357 0 1208 46596 30745 81% 21 2282141 798884 29%
c i 71.60 1226 356 0 1208 46602 30750 81% 21 2282141 798867 29%
c i 71.60 1226 356 0 1208 46605 30752 81% 21 2282141 798850 29%
c i 71.65 1226 356 0 1208 46626 30772 81% 21 2282141 798833 29%
c i 71.69 1226 356 0 1208 46665 30805 81% 21 2282141 798796 29%
c i 71.69 1226 356 0 1208 46668 30807 81% 21 2282141 798795 29%
c i 71.69 1226 356 0 1208 46669 30807 81% 21 2282141 798794 29%
c i 71.74 1226 355 0 1208 46701 30837 81% 21 2282141 798777 29%
c i 71.77 1226 355 0 1208 46717 30852 81% 21 2282141 798760 29%
c i 71.78 1226 355 0 1208 46719 30853 81% 21 2282141 798743 29%
c i 71.81 1226 355 0 1208 46723 30856 81% 21 2282141 798742 29%
c i 71.81 1226 355 0 1208 46724 30856 81% 21 2282141 798714 29%
c i 71.82 1226 355 0 1208 46725 30856 81% 21 2282141 798713 29%
c i 71.83 1226 355 0 1208 46741 30870 81% 21 2282141 798680 29%
c i 71.91 1226 354 0 1208 46769 30894 81% 21 2282141 798635 29%
c i 71.95 1226 354 0 1208 46775 30899 81% 21 2282141 798630 29%
c i 71.96 1226 354 0 1208 46776 30899 81% 21 2282141 798629 29%
c i 71.97 1226 354 0 1208 46777 30899 81% 21 2282141 798620 29%
c i 72.00 1226 354 0 1208 46793 30913 81% 21 2282141 798577 29%
c i 72.04 1226 354 0 1208 46804 30923 81% 21 2282141 798551 29%
c 
c  seconds     reductions     redundant    irredundant
c          MB      restarts          trail         variables
c             level     conflicts        glue            remaining
c 
c i 72.23 1226 354 0 1208 46827 30940 81% 21 2282141 798516 29%
c i 72.78 1226 351 0 1209 46991 31081 81% 20 2282141 797018 29%
c i 72.82 1226 351 0 1209 47000 31088 81% 20 2282141 777951 28%
c i 72.83 1226 351 0 1209 47002 31089 81% 20 2282141 777923 28%
c ] 72.91 1226 351 0 1209 47010 31095 81% 20 2282141 777553 28%
c 0 72.91 1226 351 0 1209 47010 31095 81% 20 2282141 777553 28%
c 
c --- [ result ] -------------------------------------------------------------
c 
s UNSATISFIABLE
c 
c --- [ run-time profiling ] -------------------------------------------------
c 
c process time taken by individual solving procedures
c (percentage relative to process time for solving)
c 
c        71.50  100.00% search
c        40.84   57.12% stable
c        26.29   36.77% unstable
c         4.12    5.77% walk
c         1.41    1.97% parse
c         0.25    0.34% lucky
c         0.00    0.00% simplify
c   =================================
c        71.50   98.07% solve
c 
c last line shows process time for solving
c (percentage relative to total process time)
c 
c --- [ statistics ] ---------------------------------------------------------
c 
c chronological:             15764        33.53 %  of conflicts
c conflicts:                 47010       657.49    per second
c decisions:                245757      3437.21    per second
c fixed:                   1970213        71.70 %  of all variables
c learned:                   39426        83.87 %  per conflict
c learned_lits:            4074164       100.00 %  learned literals
c minimized:                     0         0.00 %  learned literals
c shrunken:                 506482        12.43 %  learned literals
c minishrunken:             898488        22.05 %  learned literals
c otfs:                        514         1.09 %  of conflict
c propagations:          436195222         6.10 M  per second
c rephased:                      9      5223.33    interval
c restarts:                   1209        38.88    interval
c stabilizing:                   3        55.29 %  of conflicts
c subsumed:                   2704         0.04 %  of all clauses
c strengthened:                502         0.01 %  of all clauses
c walked:                        2     23505.00    interval
c 
c seconds are measured in process time for solving
c 
c --- [ resources ] ----------------------------------------------------------
c 
c total process time since initialization:        72.91    seconds
c total real time since initialization:           73.23    seconds
c maximum resident set size of process:         1227.74    MB
c 
c --- [ shutting down ] ------------------------------------------------------
c 
c exit 20
